SYSTEM = Al2As2
PREC = Accurate
ISPIN = 2

ISTART = 1
ICHARG = 11

ENCUT = 500
NELMIN = 5
NELM = 1000
ALGO = Normal
#LMAXMIX = 4
EDIFF = 0.00001

IBRION = -1
#ISIF = 3
NSW = 0
#EDIFFG = -0.02

ISMEAR = 0
SIGMA = 0.02

GGA = PE

#LWAVE = .FALSE.
#LCHARG = .FALSE.
LORBIT = 11
